NAME          FLUID
ROWS
 G  N
 G  AM-N
 G  NI-N
 G  UR-N
 G  SLOW
 G  P
 G  K
 G  S
 G  ZN
 G  ZNCH
 G  B
 G  MG
 G  MO
 G  MN
 G  MNCH
 G  CU
 G  CUCH
 G  FE
 G  FECH
 G  WATR
 G  DEN
 G  AMMO
 G  POLY
 E  HCAP
 E  HSOL
 E  HREA
 G  MINT
 G  MAXT
 G  32F
 G  77F
 G  32FK
 G  77FK
 E  WT
 N  COST
 N  PRICE
COLUMNS
*234567890123456789012345678901234567890123456789012345678901
    I820000   N             0.822000   AM-N          0.822000   
    I820000   DEN           0.120048   AMMO         -1.000000   
    I820000   HCAP          1.150000   HREA         27.600000   
    I820000   WT            1.000000   COST        160.000000   
    I820000   PRICE       200.000000   SCALE      2000.000000   
    I200000   N             0.200000   AM-N          0.200000   
    I200000   WATR          0.757000   DEN           0.120048   
    I200000   AMMO         -0.243300   HCAP          0.990000   
    I200000   HREA          5.164000   32F          -0.757000   
    I200000   77F          -0.757000   32FK         -0.757000   
    I200000   77FK         -0.757000   WT            1.000000   
    I200000   COST         40.000000   PRICE        50.000000   
    I200000   SCALE      2000.000000   
    I280000   N             0.280000   AM-N          0.070000   
    I280000   NI-N          0.070000   UR-N          0.140000   
    I280000   WATR          0.302000   DEN           0.093709   
    I280000   HCAP          0.554000   32F          -0.176887   
    I280000   77F          -0.297787   32FK          0.579186   
    I280000   77FK         -0.233809   WT            1.000000   
    I280000   COST         90.000000   PRICE       112.500000   
    I280000   SCALE      2000.000000   
    I300000   N             0.300000   AM-N          0.075000   
    I300000   NI-N          0.075000   UR-N          0.150000   
    I300000   WATR          0.250000   DEN           0.092345   
    I300000   HCAP          0.523000   32F          -0.183007   
    I300000   77F          -0.255952   32FK          0.609442   
    I300000   77FK         -0.170354   WT            1.000000   
    I300000   COST         96.000000   PRICE       120.000000   
    I300000   SCALE      2000.000000   
    I320000   N             0.320000   AM-N          0.080000   
    I320000   NI-N          0.080000   UR-N          0.160000   
    I320000   WATR          0.200000   DEN           0.090869   
    I320000   HCAP          0.492000   32F          -0.107143   
    I320000   77F          -0.232982   32FK          0.632653   
    I320000   77FK         -0.126638   WT            1.000000   
    I320000   COST        102.000000   PRICE       127.500000   
    I320000   SCALE      2000.000000   
    I340000   N             0.340000   AM-N          0.170000   
    I340000   NI-N          0.170000   DEN           0.168761   
    I340000   HCAP          0.397000   HSOL          2.900000   
    I340000   32F           0.845018   77F           0.451379   
    I340000   32FK          6.352940   77FK          0.742160   
    I340000   WT            1.000000   COST        150.000000   
    I340000   PRICE       187.500000   SCALE      2000.000000   
    I460000   N             0.460000   UR-N          0.460000   
    I460000   DEN           0.156679   HCAP          0.320000   
    I460000   HSOL          2.160000   32F           1.421310   
    I460000   77F           0.838235   32FK          1.421310   
    I460000   77FK          0.838235   WT            1.000000   
    I460000   COST        160.000000   PRICE       200.000000   
    I460000   SCALE      2000.000000   
    I16N26NA  N             0.160000   DEN           0.053119   
    I16N26NA  HCAP          0.240000   HSOL          2.120000   
    I16N26NA  32F           1.369670   77F           1.087680   
    I16N26NA  32FK          5.993010   77FK          1.087680   
    I16N26NA  WT            1.000000   COST        120.000000   
    I16N26NA  PRICE       140.000000   SCALE      2000.000000   
    INSUR28   N             0.280000   UR-N          0.280000   
    INSUR28   SLOW          0.202000   WATR          0.332000   
    INSUR28   DEN           0.093061   HCAP          0.500000   
    INSUR28   32F          -0.045714   77F          -0.097297   
    INSUR28   32FK         -0.045714   77FK         -0.097297   
    INSUR28   WT            1.000000   COST        660.000000   
    INSUR28   PRICE       760.000000   SCALE      2000.000000   
    I184600   N             0.180000   AM-N          0.180000   
    I184600   P             0.460000   DEN           0.120329   
    I184600   AMMO         -0.032440   HCAP          0.330000   
    I184600   HSOL          0.800000   32F           1.777780   
    I184600   77F           1.439020   32FK          1.777780   
    I184600   77FK          1.439020   WT            1.000000   
    I184600   COST        183.000000   PRICE       228.750000   
    I184600   SCALE      2000.000000   
    I105000   N             0.100000   AM-N          0.100000   
    I105000   P             0.495000   DEN           0.115239   
    I105000   AMMO          0.081100   HCAP          0.300000   
    I105000   HSOL          0.800000   32F           4.617980   
    I105000   77F           2.472220   32FK          4.617980   
    I105000   77FK          2.472220   WT            1.000000   
    I105000   COST        176.000000   PRICE       220.000000   
    I105000   SCALE      2000.000000   
    I115200   N             0.110000   AM-N          0.110000   
    I115200   P             0.520000   DEN           0.115701   
    I115200   AMMO          0.077000   HCAP          0.300000   
    I115200   HSOL          0.800000   32F           4.617980   
    I115200   77F           2.472220   32FK          4.617980   
    I115200   77FK          2.472220   WT            1.000000   
    I115200   COST        183.000000   PRICE       228.750000   
    I115200   SCALE      2000.000000   
    I115300   N             0.110000   AM-N          0.110000   
    I115300   P             0.530000   DEN           0.066693   
    I115300   AMMO          0.081100   HCAP          0.300000   
    I115300   HSOL          0.800000   32F           4.617980   
    I115300   77F           2.472220   32FK          4.617980   
    I115300   77FK          2.472220   WT            1.000000   
    I115300   COST        203.000000   PRICE       253.750000   
    I115300   SCALE      2000.000000   
    I082400   N             0.080000   AM-N          0.080000   
    I082400   P             0.240000   WATR          0.516000   
    I082400   DEN           0.092345   HCAP          0.676000   
    I082400   32F          -0.058366   77F          -0.072797   
    I082400   32FK         -0.058366   77FK         -0.072797   
    I082400   WT            1.000000   COST        100.000000   
    I082400   PRICE       120.000000   SCALE      2000.000000   
    I103400   N             0.100000   AM-N          0.100000   
    I103400   P             0.340000   WATR          0.423000   
    I103400   DEN           0.085470   POLY          0.340000   
    I103400   HCAP          0.578000   32F          -0.022034   
    I103400   77F          -0.057190   32FK         -0.022034   
    I103400   77FK         -0.057190   WT            1.000000   
    I103400   COST        190.000000   PRICE       237.500000   
    I103400   SCALE      2000.000000   
    I005400   P             0.540000   WATR          0.250000   
    I005400   DEN           0.120048   AMMO          0.219000   
    I005400   HCAP          0.860000   HREA          2.662000   
    I005400   32F           0.861042   77F           0.829268   
    I005400   32FK          0.861042   77FK          0.829268   
    I005400   WT            1.000000   COST        165.000000   
    I005400   PRICE       206.250000   SCALE      2000.000000   
    I007000   P             0.700000   WATR          0.078000   
    I007000   DEN           0.060024   AMMO          0.250500   
    I007000   POLY          0.210000   HCAP          0.350000   
    I007000   HREA          2.600000   32F           0.829365   
    I007000   77F           0.762906   32FK          0.829365   
    I007000   77FK          0.762906   WT            1.000000   
    I007000   COST        270.000000   PRICE       337.500000   
    I007000   SCALE      2000.000000   
    I000062   K             0.624000   DEN           0.060457   
    I000062   HCAP          0.162000   HSOL          2.120000   
    I000062   32F           3.424780   77F           2.690040   
    I000062   32FK          3.424780   77FK          2.690040   
    I000062   WT            1.000000   COST         90.000000   
    I000062   PRICE       112.500000   SCALE      2000.000000   
    I130044   N             0.137000   NI-N          0.137000   
    I130044   K             0.445000   DEN           0.120208   
    I130044   HCAP          0.285000   HSOL          3.080000   
    I130044   32F           7.547010   77F           2.571430   
    I130044   32FK          7.547010   77FK          2.571430   
    I130044   WT            1.000000   COST        277.000000   
    I130044   PRICE       346.250000   SCALE      2000.000000   
    I000050   K             0.510000   S             0.170000   
    I000050   DEN           0.101257   HCAP          0.190000   
    I000050   HSOL          1.306000   32F          13.705900   
    I000050   77F           8.708740   32FK         13.705900   
    I000050   77FK          8.708740   WT            1.000000   
    I000050   COST        140.000000   PRICE       175.000000   
    I000050   SCALE      2000.000000   
    I000025   K             0.250000   S             0.170000   
    I000025   WATR          0.510000   DEN           0.083500   
    I000025   HCAP          0.600000   32F          -0.014085   
    I000025   77F          -0.195402   32FK         -0.014085   
    I000025   77FK         -0.195402   WT            1.000000   
    I000025   COST        500.000000   PRICE       625.000000   
    I000025   SCALE      2000.000000   
    I100000   N             0.100000   AM-N          0.100000   
    I100000   S             0.050000   ZN            0.100000   
    I100000   WATR          0.630000   DEN           0.094690   
    I100000   HCAP          0.740000   77F          -0.119048   
    I100000   77FK         -0.119048   WT            1.000000   
    I100000   COST        190.000000   PRICE       237.500000   
    I100000   SCALE      2000.000000   
    I120000   N             0.120000   AM-N          0.120000   
    I120000   S             0.260000   WATR          0.400000   
    I120000   DEN           0.089714   HCAP          0.440000   
    I120000   32F           0.005025   77F          -0.104478   
    I120000   32FK          0.005025   77FK         -0.104478   
    I120000   WT            1.000000   COST        135.000000   
    I120000   PRICE       168.750000   SCALE      2000.000000   
    I210000   N             0.210000   AM-N          0.210000   
    I210000   S             0.240000   DEN           0.153481   
    I210000   HCAP          0.390000   HSOL          0.748000   
    I210000   32F           1.415460   77F           1.309470   
    I210000   32FK         14.384600   77FK          8.708740   
    I210000   WT            1.000000   COST        110.000000   
    I210000   PRICE       137.500000   SCALE      2000.000000   
    I90S000   S             0.900000   DEN           0.112357   
    I90S000   HCAP          0.173000   32F        9999.000000   
    I90S000   77F        9999.000000   32FK       9999.000000   
    I90S000   77FK       9999.000000   WT            1.000000   
    I90S000   COST        250.000000   PRICE       312.500000   
    I90S000   SCALE      2000.000000   
    I20S36Z   S             0.200000   ZN            0.360000   
    I20S36Z   DEN           0.097797   HCAP          0.193000   
    I20S36Z   HSOL          1.800000   32F           2.436430   
    I20S36Z   77F           1.732240   32FK         11.658200   
    I20S36Z   77FK          6.936510   WT            1.000000   
    I20S36Z   COST        400.000000   PRICE       500.000000   
    I20S36Z   SCALE      2000.000000   
    I9ZNCH    ZN            0.090000   ZNCH          0.090000   
    I9ZNCH    DEN           0.103490   WT            1.000000   
    I9ZNCH    COST        500.000000   PRICE       550.000000   
    I9ZNCH    SCALE      2000.000000   
    MG10S12   S             0.120000   MG            0.100000   
    MG10S12   DEN           0.071457   HCAP          0.361000   
    MG10S12   HSOL          0.464000   32F           1.380950   
    MG10S12   77F           0.742160   32FK         15.666700   
    MG10S12   77FK          9.309280   WT            1.000000   
    MG10S12   COST        400.000000   PRICE       440.000000   
    MG10S12   SCALE      2000.000000   
    I25CU00   S             0.120000   CU            0.250000   
    I25CU00   DEN           0.052423   HCAP          0.269000   
    I25CU00   HSOL          0.228000   32F           4.128200   
    I25CU00   77F           1.500000   32FK         11.820500   
    I25CU00   77FK          7.000000   WT            1.000000   
    I25CU00   COST        400.000000   PRICE       440.000000   
    I25CU00   SCALE      2000.000000   
    I9CUCH    CU            0.090000   CUCH          0.090000   
    I9CUCH    DEN           0.103490   WT            1.000000   
    I9CUCH    COST        500.000000   PRICE       550.000000   
    I9CUCH    SCALE      2000.000000   
    I9FECH    FE            0.090000   FECH          0.090000   
    I9FECH    DEN           0.103490   WT            1.000000   
    I9FECH    COST        500.000000   PRICE       550.000000   
    I9FECH    SCALE      2000.000000   
    I20FE00   S             0.120000   FE            0.200000   
    I20FE00   DEN           0.063183   HCAP          0.345000   
    I20FE00   HSOL          0.568000   32F           3.048580   
    I20FE00   77F           1.173910   32FK         12.333300   
    I20FE00   77FK          7.333330   WT            1.000000   
    I20FE00   COST        400.000000   PRICE       440.000000   
    I20FE00   SCALE      2000.000000   
    I9MNCH    MN            0.090000   MNCH          0.090000   
    I9MNCH    DEN           0.103490   WT            1.000000   
    I9MNCH    COST        500.000000   PRICE       550.000000   
    I9MNCH    SCALE      2000.000000   
    IMN3100   S             0.150000   MN            0.310000   
    IMN3100   DEN           0.308642   HCAP          0.182000   
    IMN3100   32F           1.890170   77F           1.570690   
    IMN3100   32FK         12.513500   77FK          7.403360   
    IMN3100   WT            1.000000   COST        400.000000   
    IMN3100   PRICE       440.000000   SCALE      2000.000000   
    NAMO39    MO            0.003900   DEN           0.285714   
    NAMO39    32F           2.267970   77F           1.604170   
    NAMO39    32FK          2.267970   77FK          1.604170   
    NAMO39    WT            1.000000   COST        400.000000   
    NAMO39    PRICE       440.000000   SCALE      2000.000000   
    NAB11     B             0.110000   DEN           0.069392   
    NAB11     HCAP          0.385000   HSOL          1.580000   
    NAB11     32F          40.666700   77F           7.333330   
    NAB11     32FK         40.666700   77FK          7.333330   
    NAB11     WT            1.000000   COST        500.000000   
    NAB11     PRICE       550.000000   SCALE      2000.000000   
    I20B000   B             0.205000   DEN           0.120048   
    I20B000   HCAP          0.700000   HSOL          1.000000   
    I20B000   32F           4.555560   77F           2.472220   
    I20B000   32FK          4.555560   77FK          2.472220   
    I20B000   WT            1.000000   COST        920.000000   
    I20B000   PRICE      1150.000000   SCALE      2000.000000   
    WATER     WATR          1.000000   DEN           0.119750   
    WATER     HCAP          1.000000   HSOL          0.400000   
    WATER     32F          -1.000000   77F          -1.000000   
    WATER     32FK         -1.000000   77FK         -1.000000   
    WATER     WT            1.000000   COST          0.100000   
    WATER     PRICE         0.125000   SCALE      2000.000000   
    HOTWATER  WATR          1.000000   DEN           0.120048   
    HOTWATER  HCAP          1.000000   HREA          1.260000   
    HOTWATER  32F          -1.000000   77F          -1.000000   
    HOTWATER  32FK         -1.000000   77FK         -1.000000   
    HOTWATER  WT            1.000000   COST          0.250000   
    HOTWATER  PRICE         0.312500   SCALE      2000.000000   
    EVAP      WATR         -1.000000   DEN          -0.120048   
    EVAP      HCAP         -1.000000   HSOL         -0.400000   
    EVAP      32F           1.000000   77F           1.000000   
    EVAP      32FK          1.000000   77FK          1.000000   
    EVAP      WT           -1.000000   COST         25.000000   
    EVAP      PRICE        25.000000   SCALE      2000.000000   
    HEATCAP   HCAP         -1.000000   MINT          0.150000   
    HEATCAP   MAXT          0.800000   COST          0.000000   
    HEATCAP   PRICE         0.000000   SCALE         1.000000   
    HEATSOL   HSOL         -2.000000   MINT         -1.000000   
    HEATSOL   MAXT          1.000000   COST          0.000000   
    HEATSOL   PRICE         0.000000   SCALE         1.000000   
    HEATREA   HREA         -2.000000   MINT          1.000000   
    HEATREA   MAXT         -1.000000   COST          0.000000   
    HEATREA   PRICE         0.000000   SCALE         1.000000   
    PRODUCT   WT           -1.000000   COST          0.000000   
    PRODUCT   PRICE         0.000000   SCALE         1.000000   
*234567890123456789012345678901234567890123456789012345678901
RHS
RANGES
ENDATA
